p cnf 20 20
1 3 -5 0
14 13 -4 0
-19 6 8 0
13 -11 20 0
9 10 13 0
-17 -4 -18 0
-10 3 -13 0
-17 16 10 0
-11 19 7 0
-7 2 6 0
-6 -9 -19 0
-10 -18 17 0
-7 13 -9 0
15 9 -14 0
-9 15 -14 0
17 12 -19 0
1 3 -7 0
-1 -20 2 0
16 9 14 0
-5 15 -20 0
